S7/SIO/files/serie4/ex1-max.lp
Maximize
    Z: 3x1 -8x2

Subject To
    c1: -2x1 + 3x2 <= 9
    c2: x1 + x2 >= 3
    c3: 2x1 - x2 <= 8
    c4: x2 <= 6
    c5: x1 >= 0

End