S7/SIO/files/serie4/ex1-max.out
Problem:    
Rows:       5
Columns:    2
Non-zeros:  8
Status:     OPTIMAL
Objective:  Z = 12 (MAXimum)

   No.   Row name   St   Activity     Lower bound   Upper bound    Marginal
------ ------------ -- ------------- ------------- ------------- -------------
     1 c1           B             -8                           9 
     2 c2           B              4             3               
     3 c3           NU             8                           8           1.5 
     4 c4           B              0                           6 
     5 c5           B              4             0               

   No. Column name  St   Activity     Lower bound   Upper bound    Marginal
------ ------------ -- ------------- ------------- ------------- -------------
     1 x1           B              4             0               
     2 x2           NL             0             0                        -6.5 

Karush-Kuhn-Tucker optimality conditions:

KKT.PE: max.abs.err = 0.00e+00 on row 0
        max.rel.err = 0.00e+00 on row 0
        High quality

KKT.PB: max.abs.err = 0.00e+00 on row 0
        max.rel.err = 0.00e+00 on row 0
        High quality

KKT.DE: max.abs.err = 0.00e+00 on column 0
        max.rel.err = 0.00e+00 on column 0
        High quality

KKT.DB: max.abs.err = 0.00e+00 on row 0
        max.rel.err = 0.00e+00 on row 0
        High quality

End of output
